units           real
atom_style      full
boundary        p p p

pair_style      lj/long/coul/long cut long 12.5
kspace_style    ewald 1e-5
bond_style      harmonic
angle_style     hybrid fourier cosine/periodic harmonic
dihedral_style  harmonic
improper_style  fourier

pair_modify     shift yes mix arithmetic
dielectric      1.0
box tilt        large
read_data       data.frame extra/atom/types 2 extra/bond/types 1 extra/angle/types 1 extra/dihedral/types 0 extra/improper/types 0
read_data       data.ads add append offset a b an d i

group           frame type a1:a2
group           ads type a3:a4

########################################## analysis ####################################################
dump            forces all custom 1 forces.dump id type fx fy fz
compute         int frame group/group ads pair yes kspace yes boundary yes
variable        energy2 equal c_int
thermo_style    custom step etotal evdwl ecoul elong epair etail c_int

########################################## run #########################################################
run             0
print           ${energy2} file Eint.out
